c ind 104 110 118 12 130 142 154 166 178 190 0
c ind 202 214 226 238 250 262 274 289 30 32 0
c ind 328 331 338 34 36 360 366 374 38 386 0
c ind 398 40 410 42 422 434 44 446 458 46 0
c ind 470 48 482 494 5 50 506 518 52 530 0
c ind 54 56 58 6 60 617 65 7 72 75 0
c ind 82 0
p cnf 837 2901
-1 -2 8 0
-1 2 803 0
-10 -11 -6 0
-10 11 6 0
-100 -101 -7 0
-100 101 7 0
-101 -30 -102 0
-101 30 102 0
-102 -103 -6 0
-102 103 6 0
-103 -104 0
-105 -106 7 0
-105 -7 106 0
-106 -107 -112 0
-106 107 112 0
-107 -32 -108 0
-107 32 108 0
-108 -109 -111 0
-108 109 111 0
-109 -110 0
-11 -12 0
-111 103 0
-111 6 0
-112 102 0
-112 30 0
-113 -114 7 0
-113 -7 114 0
-114 -115 -120 0
-114 115 120 0
-115 -34 -116 0
-115 34 116 0
-116 -117 -119 0
-116 117 119 0
-117 -118 0
-119 109 0
-119 111 0
-120 121 124 0
-121 122 123 0
-122 108 0
-122 32 0
-123 108 0
-123 112 0
-124 112 0
-124 32 0
-125 -126 7 0
-125 -7 126 0
-126 -127 -132 0
-126 127 132 0
-127 -36 -128 0
-127 36 128 0
-128 -129 -131 0
-128 129 131 0
-129 -130 0
-13 -14 61 0
-13 14 738 0
-131 117 0
-131 119 0
-132 133 136 0
-133 134 135 0
-134 116 0
-134 34 0
-135 116 0
-135 120 0
-136 120 0
-136 34 0
-137 -138 7 0
-137 -7 138 0
-138 -139 -144 0
-138 139 144 0
-139 -38 -140 0
-139 38 140 0
-14 15 0
-14 59 0
-140 -141 -143 0
-140 141 143 0
-141 -142 0
-143 129 0
-143 131 0
-144 145 148 0
-145 146 147 0
-146 128 0
-146 36 0
-147 128 0
-147 132 0
-148 132 0
-148 36 0
-149 -150 7 0
-149 -7 150 0
-15 16 0
-15 57 0
-150 -151 -156 0
-150 151 156 0
-151 -40 -152 0
-151 40 152 0
-152 -153 -155 0
-152 153 155 0
-153 -154 0
-155 141 0
-155 143 0
-156 157 160 0
-157 158 159 0
-158 140 0
-158 38 0
-159 140 0
-159 144 0
-16 17 0
-16 55 0
-160 144 0
-160 38 0
-161 -162 7 0
-161 -7 162 0
-162 -163 -168 0
-162 163 168 0
-163 -42 -164 0
-163 42 164 0
-164 -165 -167 0
-164 165 167 0
-165 -166 0
-167 153 0
-167 155 0
-168 169 172 0
-169 170 171 0
-17 18 0
-17 53 0
-170 152 0
-170 40 0
-171 152 0
-171 156 0
-172 156 0
-172 40 0
-173 -174 7 0
-173 -7 174 0
-174 -175 -180 0
-174 175 180 0
-175 -44 -176 0
-175 44 176 0
-176 -177 -179 0
-176 177 179 0
-177 -178 0
-179 165 0
-179 167 0
-18 19 0
-18 51 0
-180 181 184 0
-181 182 183 0
-182 164 0
-182 42 0
-183 164 0
-183 168 0
-184 168 0
-184 42 0
-185 -186 7 0
-185 -7 186 0
-186 -187 -192 0
-186 187 192 0
-187 -46 -188 0
-187 46 188 0
-188 -189 -191 0
-188 189 191 0
-189 -190 0
-19 20 0
-19 49 0
-191 177 0
-191 179 0
-192 193 196 0
-193 194 195 0
-194 176 0
-194 44 0
-195 176 0
-195 180 0
-196 180 0
-196 44 0
-197 -198 7 0
-197 -7 198 0
-198 -199 -204 0
-198 199 204 0
-199 -48 -200 0
-199 48 200 0
-2 -3 7 0
-2 -7 3 0
-20 21 0
-20 47 0
-200 -201 -203 0
-200 201 203 0
-201 -202 0
-203 189 0
-203 191 0
-204 205 208 0
-205 206 207 0
-206 188 0
-206 46 0
-207 188 0
-207 192 0
-208 192 0
-208 46 0
-209 -210 7 0
-209 -7 210 0
-21 22 0
-21 45 0
-210 -211 -216 0
-210 211 216 0
-211 -50 -212 0
-211 50 212 0
-212 -213 -215 0
-212 213 215 0
-213 -214 0
-215 201 0
-215 203 0
-216 217 220 0
-217 218 219 0
-218 200 0
-218 48 0
-219 200 0
-219 204 0
-22 23 0
-22 43 0
-220 204 0
-220 48 0
-221 -222 7 0
-221 -7 222 0
-222 -223 -228 0
-222 223 228 0
-223 -52 -224 0
-223 52 224 0
-224 -225 -227 0
-224 225 227 0
-225 -226 0
-227 213 0
-227 215 0
-228 229 232 0
-229 230 231 0
-23 24 0
-23 41 0
-230 212 0
-230 50 0
-231 212 0
-231 216 0
-232 216 0
-232 50 0
-233 -234 7 0
-233 -7 234 0
-234 -235 -240 0
-234 235 240 0
-235 -54 -236 0
-235 54 236 0
-236 -237 -239 0
-236 237 239 0
-237 -238 0
-239 225 0
-239 227 0
-24 25 0
-24 39 0
-240 241 244 0
-241 242 243 0
-242 224 0
-242 52 0
-243 224 0
-243 228 0
-244 228 0
-244 52 0
-245 -246 7 0
-245 -7 246 0
-246 -247 -252 0
-246 247 252 0
-247 -56 -248 0
-247 56 248 0
-248 -249 -251 0
-248 249 251 0
-249 -250 0
-25 26 0
-25 37 0
-251 237 0
-251 239 0
-252 253 256 0
-253 254 255 0
-254 236 0
-254 54 0
-255 236 0
-255 240 0
-256 240 0
-256 54 0
-257 -258 7 0
-257 -7 258 0
-258 -259 -264 0
-258 259 264 0
-259 -58 -260 0
-259 58 260 0
-26 27 0
-26 35 0
-260 -261 -263 0
-260 261 263 0
-261 -262 0
-263 249 0
-263 251 0
-264 265 268 0
-265 266 267 0
-266 248 0
-266 56 0
-267 248 0
-267 252 0
-268 252 0
-268 56 0
-269 -270 7 0
-269 -7 270 0
-27 28 0
-27 33 0
-270 -271 -276 0
-270 271 276 0
-271 -60 -272 0
-271 60 272 0
-272 -273 -275 0
-272 273 275 0
-273 -274 0
-275 261 0
-275 263 0
-276 277 280 0
-277 278 279 0
-278 260 0
-278 58 0
-279 260 0
-279 264 0
-28 29 0
-28 31 0
-280 264 0
-280 58 0
-281 -282 283 0
-281 282 7 0
-282 -6 73 0
-282 -73 6 0
-283 -284 285 0
-283 284 624 0
-284 -7 80 0
-284 -80 7 0
-285 -286 290 0
-285 286 609 0
-286 -287 7 0
-286 -7 287 0
-287 -288 -6 0
-287 288 6 0
-288 -289 0
-29 -30 6 0
-29 -6 30 0
-290 -291 322 0
-290 291 575 0
-291 292 0
-291 321 0
-292 293 0
-292 320 0
-293 294 0
-293 319 0
-294 295 0
-294 318 0
-295 296 0
-295 317 0
-296 297 0
-296 316 0
-297 298 0
-297 315 0
-298 299 0
-298 314 0
-299 300 0
-299 313 0
-3 -4 -6 0
-3 4 6 0
-300 301 0
-300 312 0
-301 302 0
-301 311 0
-302 303 0
-302 310 0
-303 304 0
-303 309 0
-304 305 0
-304 308 0
-305 306 0
-305 307 0
-306 -104 6 0
-306 -6 104 0
-307 -110 6 0
-307 -6 110 0
-308 -118 6 0
-308 -6 118 0
-309 -130 6 0
-309 -6 130 0
-31 -32 6 0
-31 -6 32 0
-310 -142 6 0
-310 -6 142 0
-311 -154 6 0
-311 -6 154 0
-312 -166 6 0
-312 -6 166 0
-313 -178 6 0
-313 -6 178 0
-314 -190 6 0
-314 -6 190 0
-315 -202 6 0
-315 -6 202 0
-316 -214 6 0
-316 -6 214 0
-317 -226 6 0
-317 -6 226 0
-318 -238 6 0
-318 -6 238 0
-319 -250 6 0
-319 -6 250 0
-320 -262 6 0
-320 -6 262 0
-321 -274 6 0
-321 -6 274 0
-322 -323 332 0
-322 323 7 0
-323 -324 7 0
-323 -7 324 0
-324 -325 -7 0
-324 325 7 0
-325 -326 -329 0
-325 326 329 0
-326 -327 -6 0
-326 327 6 0
-327 -328 0
-329 -330 -6 0
-329 330 6 0
-33 -34 6 0
-33 -6 34 0
-330 -331 0
-332 -333 339 0
-332 333 573 0
-333 -334 7 0
-333 -7 334 0
-334 -335 -7 0
-334 335 7 0
-335 -80 -336 0
-335 80 336 0
-336 -337 -6 0
-336 337 6 0
-337 -338 0
-339 -340 537 0
-339 340 539 0
-340 341 0
-340 525 0
-341 342 0
-341 513 0
-342 343 0
-342 501 0
-343 344 0
-343 489 0
-344 345 0
-344 477 0
-345 346 0
-345 465 0
-346 347 0
-346 453 0
-347 348 0
-347 441 0
-348 349 0
-348 429 0
-349 350 0
-349 417 0
-35 -36 6 0
-35 -6 36 0
-350 351 0
-350 405 0
-351 352 0
-351 393 0
-352 353 0
-352 381 0
-353 354 0
-353 369 0
-354 355 0
-354 361 0
-355 -356 7 0
-355 -7 356 0
-356 -357 -7 0
-356 357 7 0
-357 -104 -358 0
-357 104 358 0
-358 -359 -6 0
-358 359 6 0
-359 -360 0
-361 -362 7 0
-361 -7 362 0
-362 -363 -368 0
-362 363 368 0
-363 -110 -364 0
-363 110 364 0
-364 -365 -367 0
-364 365 367 0
-365 -366 0
-367 359 0
-367 6 0
-368 104 0
-368 358 0
-369 -370 7 0
-369 -7 370 0
-37 -38 6 0
-37 -6 38 0
-370 -371 -376 0
-370 371 376 0
-371 -118 -372 0
-371 118 372 0
-372 -373 -375 0
-372 373 375 0
-373 -374 0
-375 365 0
-375 367 0
-376 377 380 0
-377 378 379 0
-378 110 0
-378 364 0
-379 364 0
-379 368 0
-380 110 0
-380 368 0
-381 -382 7 0
-381 -7 382 0
-382 -383 -388 0
-382 383 388 0
-383 -130 -384 0
-383 130 384 0
-384 -385 -387 0
-384 385 387 0
-385 -386 0
-387 373 0
-387 375 0
-388 389 392 0
-389 390 391 0
-39 -40 6 0
-39 -6 40 0
-390 118 0
-390 372 0
-391 372 0
-391 376 0
-392 118 0
-392 376 0
-393 -394 7 0
-393 -7 394 0
-394 -395 -400 0
-394 395 400 0
-395 -142 -396 0
-395 142 396 0
-396 -397 -399 0
-396 397 399 0
-397 -398 0
-399 385 0
-399 387 0
-4 -5 0
-400 401 404 0
-401 402 403 0
-402 130 0
-402 384 0
-403 384 0
-403 388 0
-404 130 0
-404 388 0
-405 -406 7 0
-405 -7 406 0
-406 -407 -412 0
-406 407 412 0
-407 -154 -408 0
-407 154 408 0
-408 -409 -411 0
-408 409 411 0
-409 -410 0
-41 -42 6 0
-41 -6 42 0
-411 397 0
-411 399 0
-412 413 416 0
-413 414 415 0
-414 142 0
-414 396 0
-415 396 0
-415 400 0
-416 142 0
-416 400 0
-417 -418 7 0
-417 -7 418 0
-418 -419 -424 0
-418 419 424 0
-419 -166 -420 0
-419 166 420 0
-420 -421 -423 0
-420 421 423 0
-421 -422 0
-423 409 0
-423 411 0
-424 425 428 0
-425 426 427 0
-426 154 0
-426 408 0
-427 408 0
-427 412 0
-428 154 0
-428 412 0
-429 -430 7 0
-429 -7 430 0
-43 -44 6 0
-43 -6 44 0
-430 -431 -436 0
-430 431 436 0
-431 -178 -432 0
-431 178 432 0
-432 -433 -435 0
-432 433 435 0
-433 -434 0
-435 421 0
-435 423 0
-436 437 440 0
-437 438 439 0
-438 166 0
-438 420 0
-439 420 0
-439 424 0
-440 166 0
-440 424 0
-441 -442 7 0
-441 -7 442 0
-442 -443 -448 0
-442 443 448 0
-443 -190 -444 0
-443 190 444 0
-444 -445 -447 0
-444 445 447 0
-445 -446 0
-447 433 0
-447 435 0
-448 449 452 0
-449 450 451 0
-45 -46 6 0
-45 -6 46 0
-450 178 0
-450 432 0
-451 432 0
-451 436 0
-452 178 0
-452 436 0
-453 -454 7 0
-453 -7 454 0
-454 -455 -460 0
-454 455 460 0
-455 -202 -456 0
-455 202 456 0
-456 -457 -459 0
-456 457 459 0
-457 -458 0
-459 445 0
-459 447 0
-460 461 464 0
-461 462 463 0
-462 190 0
-462 444 0
-463 444 0
-463 448 0
-464 190 0
-464 448 0
-465 -466 7 0
-465 -7 466 0
-466 -467 -472 0
-466 467 472 0
-467 -214 -468 0
-467 214 468 0
-468 -469 -471 0
-468 469 471 0
-469 -470 0
-47 -48 6 0
-47 -6 48 0
-471 457 0
-471 459 0
-472 473 476 0
-473 474 475 0
-474 202 0
-474 456 0
-475 456 0
-475 460 0
-476 202 0
-476 460 0
-477 -478 7 0
-477 -7 478 0
-478 -479 -484 0
-478 479 484 0
-479 -226 -480 0
-479 226 480 0
-480 -481 -483 0
-480 481 483 0
-481 -482 0
-483 469 0
-483 471 0
-484 485 488 0
-485 486 487 0
-486 214 0
-486 468 0
-487 468 0
-487 472 0
-488 214 0
-488 472 0
-489 -490 7 0
-489 -7 490 0
-49 -50 6 0
-49 -6 50 0
-490 -491 -496 0
-490 491 496 0
-491 -238 -492 0
-491 238 492 0
-492 -493 -495 0
-492 493 495 0
-493 -494 0
-495 481 0
-495 483 0
-496 497 500 0
-497 498 499 0
-498 226 0
-498 480 0
-499 480 0
-499 484 0
-500 226 0
-500 484 0
-501 -502 7 0
-501 -7 502 0
-502 -503 -508 0
-502 503 508 0
-503 -250 -504 0
-503 250 504 0
-504 -505 -507 0
-504 505 507 0
-505 -506 0
-507 493 0
-507 495 0
-508 509 512 0
-509 510 511 0
-51 -52 6 0
-51 -6 52 0
-510 238 0
-510 492 0
-511 492 0
-511 496 0
-512 238 0
-512 496 0
-513 -514 7 0
-513 -7 514 0
-514 -515 -520 0
-514 515 520 0
-515 -262 -516 0
-515 262 516 0
-516 -517 -519 0
-516 517 519 0
-517 -518 0
-519 505 0
-519 507 0
-520 521 524 0
-521 522 523 0
-522 250 0
-522 504 0
-523 504 0
-523 508 0
-524 250 0
-524 508 0
-525 -526 7 0
-525 -7 526 0
-526 -527 -532 0
-526 527 532 0
-527 -274 -528 0
-527 274 528 0
-528 -529 -531 0
-528 529 531 0
-529 -530 0
-53 -54 6 0
-53 -6 54 0
-531 517 0
-531 519 0
-532 533 536 0
-533 534 535 0
-534 262 0
-534 516 0
-535 516 0
-535 520 0
-536 262 0
-536 520 0
-537 -538 6 0
-537 538 7 0
-538 -329 6 0
-538 -6 329 0
-539 -540 571 0
-539 540 7 0
-540 541 0
-540 570 0
-541 542 0
-541 569 0
-542 543 0
-542 568 0
-543 544 0
-543 567 0
-544 545 0
-544 566 0
-545 546 0
-545 565 0
-546 547 0
-546 564 0
-547 548 0
-547 563 0
-548 549 0
-548 562 0
-549 550 0
-549 561 0
-55 -56 6 0
-55 -6 56 0
-550 551 0
-550 560 0
-551 552 0
-551 559 0
-552 553 0
-552 558 0
-553 554 0
-553 557 0
-554 555 0
-554 556 0
-555 -360 7 0
-555 -7 360 0
-556 -366 7 0
-556 -7 366 0
-557 -374 7 0
-557 -7 374 0
-558 -386 7 0
-558 -7 386 0
-559 -398 7 0
-559 -7 398 0
-560 -410 7 0
-560 -7 410 0
-561 -422 7 0
-561 -7 422 0
-562 -434 7 0
-562 -7 434 0
-563 -446 7 0
-563 -7 446 0
-564 -458 7 0
-564 -7 458 0
-565 -470 7 0
-565 -7 470 0
-566 -482 7 0
-566 -7 482 0
-567 -494 7 0
-567 -7 494 0
-568 -506 7 0
-568 -7 506 0
-569 -518 7 0
-569 -7 518 0
-57 -58 6 0
-57 -6 58 0
-570 -530 7 0
-570 -7 530 0
-571 -572 6 0
-571 572 7 0
-572 -329 7 0
-572 -7 329 0
-573 -340 537 0
-573 340 574 0
-574 -540 537 0
-574 540 7 0
-575 -323 576 0
-575 323 7 0
-576 -340 537 0
-576 340 577 0
-577 -578 537 0
-577 578 7 0
-578 579 0
-578 608 0
-579 580 0
-579 607 0
-580 581 0
-580 606 0
-581 582 0
-581 605 0
-582 583 0
-582 604 0
-583 584 0
-583 603 0
-584 585 0
-584 602 0
-585 586 0
-585 601 0
-586 587 0
-586 600 0
-587 588 0
-587 599 0
-588 589 0
-588 598 0
-589 590 0
-589 597 0
-59 -6 60 0
-59 -60 6 0
-590 591 0
-590 596 0
-591 592 0
-591 595 0
-592 593 0
-592 594 0
-593 -356 6 0
-593 -6 356 0
-594 -362 6 0
-594 -6 362 0
-595 -370 6 0
-595 -6 370 0
-596 -382 6 0
-596 -6 382 0
-597 -394 6 0
-597 -6 394 0
-598 -406 6 0
-598 -6 406 0
-599 -418 6 0
-599 -6 418 0
-600 -430 6 0
-600 -6 430 0
-601 -442 6 0
-601 -6 442 0
-602 -454 6 0
-602 -6 454 0
-603 -466 6 0
-603 -6 466 0
-604 -478 6 0
-604 -6 478 0
-605 -490 6 0
-605 -6 490 0
-606 -502 6 0
-606 -6 502 0
-607 -514 6 0
-607 -6 514 0
-608 -526 6 0
-608 -6 526 0
-609 -291 610 0
-609 291 621 0
-61 -62 66 0
-61 62 726 0
-610 -323 611 0
-610 323 7 0
-611 -612 618 0
-611 612 619 0
-612 -6 613 0
-612 -613 6 0
-613 -614 -7 0
-613 614 7 0
-614 -287 -615 0
-614 287 615 0
-615 -616 -6 0
-615 616 6 0
-616 -617 0
-618 -340 537 0
-618 340 7 0
-619 -620 618 0
-619 620 339 0
-62 -6 63 0
-62 -63 6 0
-620 -334 6 0
-620 -6 334 0
-621 -323 622 0
-621 323 7 0
-622 -612 618 0
-622 612 623 0
-623 -620 618 0
-623 620 576 0
-624 -286 625 0
-624 286 634 0
-625 -291 626 0
-625 291 575 0
-626 -323 627 0
-626 323 7 0
-627 -612 628 0
-627 612 633 0
-628 -620 339 0
-628 620 629 0
-629 -630 573 0
-629 630 631 0
-63 -64 -6 0
-63 64 6 0
-630 -336 6 0
-630 -6 336 0
-631 -340 537 0
-631 340 632 0
-632 -540 6 0
-632 540 7 0
-633 -333 573 0
-633 333 339 0
-634 -291 635 0
-634 291 638 0
-635 -323 636 0
-635 323 7 0
-636 -612 618 0
-636 612 637 0
-637 -620 339 0
-637 620 618 0
-638 -323 639 0
-638 323 7 0
-639 -612 618 0
-639 612 640 0
-64 -65 0
-640 -620 576 0
-640 620 618 0
-641 -642 673 0
-641 642 7 0
-642 643 0
-642 672 0
-643 644 0
-643 671 0
-644 645 0
-644 670 0
-645 646 0
-645 669 0
-646 647 0
-646 668 0
-647 648 0
-647 667 0
-648 649 0
-648 666 0
-649 650 0
-649 665 0
-650 651 0
-650 664 0
-651 652 0
-651 663 0
-652 653 0
-652 662 0
-653 654 0
-653 661 0
-654 655 0
-654 660 0
-655 656 0
-655 659 0
-656 657 0
-656 658 0
-657 -104 7 0
-657 -7 104 0
-658 -110 7 0
-658 -7 110 0
-659 -118 7 0
-659 -7 118 0
-66 -67 76 0
-66 67 7 0
-660 -130 7 0
-660 -7 130 0
-661 -142 7 0
-661 -7 142 0
-662 -154 7 0
-662 -7 154 0
-663 -166 7 0
-663 -7 166 0
-664 -178 7 0
-664 -7 178 0
-665 -190 7 0
-665 -7 190 0
-666 -202 7 0
-666 -7 202 0
-667 -214 7 0
-667 -7 214 0
-668 -226 7 0
-668 -7 226 0
-669 -238 7 0
-669 -7 238 0
-67 -68 7 0
-67 -7 68 0
-670 -250 7 0
-670 -7 250 0
-671 -262 7 0
-671 -7 262 0
-672 -274 7 0
-672 -7 274 0
-673 -282 674 0
-673 282 676 0
-674 -675 283 0
-674 675 7 0
-675 -7 73 0
-675 -73 7 0
-676 -675 677 0
-676 675 7 0
-677 -284 678 0
-677 284 703 0
-678 -286 679 0
-678 286 692 0
-679 -291 680 0
-679 291 684 0
-68 -69 -7 0
-68 69 7 0
-680 -323 681 0
-680 323 7 0
-681 -612 629 0
-681 612 682 0
-682 -333 683 0
-682 333 573 0
-683 -340 6 0
-683 340 574 0
-684 -323 685 0
-684 323 7 0
-685 -612 686 0
-685 612 689 0
-686 -333 687 0
-686 333 576 0
-687 -340 537 0
-687 340 688 0
-688 -578 6 0
-688 578 7 0
-689 -333 690 0
-689 333 576 0
-69 -70 -73 0
-69 70 73 0
-690 -340 6 0
-690 340 691 0
-691 -578 571 0
-691 578 7 0
-692 -291 693 0
-692 291 699 0
-693 -323 694 0
-693 323 7 0
-694 -612 695 0
-694 612 697 0
-695 -333 696 0
-695 333 618 0
-696 -340 6 0
-696 340 7 0
-697 -620 618 0
-697 620 698 0
-698 -340 6 0
-698 340 632 0
-699 -323 700 0
-699 323 7 0
-7 0
-70 -71 -6 0
-70 71 6 0
-700 -612 695 0
-700 612 701 0
-701 -620 618 0
-701 620 702 0
-702 -340 6 0
-702 340 688 0
-703 -286 704 0
-703 286 714 0
-704 -291 705 0
-704 291 708 0
-705 -323 706 0
-705 323 7 0
-706 -707 683 0
-706 707 573 0
-707 -613 7 0
-707 -7 613 0
-708 -323 709 0
-708 323 7 0
-709 -612 710 0
-709 612 712 0
-71 -72 0
-710 -620 711 0
-710 620 576 0
-711 -340 537 0
-711 340 691 0
-712 -333 713 0
-712 333 690 0
-713 -340 6 0
-713 340 577 0
-714 -291 715 0
-714 291 720 0
-715 -323 716 0
-715 323 7 0
-716 -612 717 0
-716 612 718 0
-717 -620 696 0
-717 620 618 0
-718 -620 719 0
-718 620 696 0
-719 -340 571 0
-719 340 632 0
-720 -323 721 0
-720 323 7 0
-721 -612 717 0
-721 612 722 0
-722 -620 723 0
-722 620 696 0
-723 -340 571 0
-723 340 688 0
-724 -84 281 0
-724 84 725 0
-725 -642 281 0
-725 642 7 0
-726 -67 727 0
-726 67 7 0
-727 -728 731 0
-727 728 736 0
-728 -6 729 0
-728 -729 6 0
-729 -730 -7 0
-729 730 7 0
-73 -74 -6 0
-73 74 6 0
-730 -10 -287 0
-730 10 287 0
-731 -732 724 0
-731 732 733 0
-732 -6 80 0
-732 -80 6 0
-733 -84 281 0
-733 84 734 0
-734 -642 735 0
-734 642 7 0
-735 -282 283 0
-735 282 677 0
-736 -77 737 0
-736 77 724 0
-737 -84 735 0
-737 84 725 0
-738 -62 739 0
-738 62 773 0
-739 -67 740 0
-739 67 7 0
-74 -75 0
-740 -84 281 0
-740 84 741 0
-741 -742 281 0
-741 742 7 0
-742 743 0
-742 772 0
-743 744 0
-743 771 0
-744 745 0
-744 770 0
-745 746 0
-745 769 0
-746 747 0
-746 768 0
-747 748 0
-747 767 0
-748 749 0
-748 766 0
-749 750 0
-749 765 0
-750 751 0
-750 764 0
-751 752 0
-751 763 0
-752 753 0
-752 762 0
-753 754 0
-753 761 0
-754 755 0
-754 760 0
-755 756 0
-755 759 0
-756 757 0
-756 758 0
-757 -100 6 0
-757 -6 100 0
-758 -106 6 0
-758 -6 106 0
-759 -114 6 0
-759 -6 114 0
-76 -77 83 0
-76 77 724 0
-760 -126 6 0
-760 -6 126 0
-761 -138 6 0
-761 -6 138 0
-762 -150 6 0
-762 -6 150 0
-763 -162 6 0
-763 -6 162 0
-764 -174 6 0
-764 -6 174 0
-765 -186 6 0
-765 -6 186 0
-766 -198 6 0
-766 -6 198 0
-767 -210 6 0
-767 -6 210 0
-768 -222 6 0
-768 -6 222 0
-769 -234 6 0
-769 -6 234 0
-77 -7 78 0
-77 -78 7 0
-770 -246 6 0
-770 -6 246 0
-771 -258 6 0
-771 -6 258 0
-772 -270 6 0
-772 -6 270 0
-773 -67 774 0
-773 67 7 0
-774 -728 775 0
-774 728 778 0
-775 -77 776 0
-775 77 740 0
-776 -84 281 0
-776 84 777 0
-777 -742 735 0
-777 742 7 0
-778 -77 779 0
-778 77 740 0
-779 -84 735 0
-779 84 780 0
-78 -79 -7 0
-78 79 7 0
-780 -742 673 0
-780 742 7 0
-781 -14 782 0
-781 14 795 0
-782 -783 784 0
-782 783 792 0
-783 -63 7 0
-783 -7 63 0
-784 -67 785 0
-784 67 7 0
-785 -728 786 0
-785 728 789 0
-786 -77 787 0
-786 77 788 0
-787 -84 735 0
-787 84 7 0
-788 -84 281 0
-788 84 7 0
-789 -790 788 0
-789 790 791 0
-79 -3 -80 0
-79 3 80 0
-790 -6 78 0
-790 -78 6 0
-791 -84 735 0
-791 84 734 0
-792 -67 793 0
-792 67 7 0
-793 -728 788 0
-793 728 794 0
-794 -790 788 0
-794 790 83 0
-795 -783 796 0
-795 783 800 0
-796 -67 797 0
-796 67 7 0
-797 -728 786 0
-797 728 798 0
-798 -790 788 0
-798 790 799 0
-799 -84 735 0
-799 84 777 0
-8 -9 13 0
-8 9 781 0
-80 -81 -6 0
-80 81 6 0
-800 -67 801 0
-800 67 7 0
-801 -728 788 0
-801 728 802 0
-802 -790 788 0
-802 790 740 0
-803 -9 804 0
-803 9 820 0
-804 -14 805 0
-804 14 813 0
-805 -62 806 0
-805 62 810 0
-806 -67 807 0
-806 67 7 0
-807 -728 808 0
-807 728 809 0
-808 -790 83 0
-808 790 731 0
-809 -77 724 0
-809 77 83 0
-81 -82 0
-810 -67 811 0
-810 67 7 0
-811 -812 737 0
-811 812 724 0
-812 -7 729 0
-812 -729 7 0
-813 -62 739 0
-813 62 814 0
-814 -67 815 0
-814 67 7 0
-815 -728 816 0
-815 728 818 0
-816 -790 817 0
-816 790 740 0
-817 -84 281 0
-817 84 780 0
-818 -77 819 0
-818 77 779 0
-819 -84 735 0
-819 84 741 0
-820 -14 821 0
-820 14 830 0
-821 -62 822 0
-821 62 825 0
-822 -67 823 0
-822 67 7 0
-823 -728 788 0
-823 728 824 0
-824 -790 83 0
-824 790 788 0
-825 -67 826 0
-825 67 7 0
-826 -728 827 0
-826 728 828 0
-827 -790 787 0
-827 790 788 0
-828 -790 829 0
-828 790 787 0
-829 -84 673 0
-829 84 734 0
-83 -84 281 0
-83 84 641 0
-830 -62 831 0
-830 62 834 0
-831 -67 832 0
-831 67 7 0
-832 -728 788 0
-832 728 833 0
-833 -790 740 0
-833 790 788 0
-834 -67 835 0
-834 67 7 0
-835 -728 827 0
-835 728 836 0
-836 -790 837 0
-836 790 787 0
-837 -84 673 0
-837 84 777 0
-84 269 0
-84 85 0
-85 257 0
-85 86 0
-86 245 0
-86 87 0
-87 233 0
-87 88 0
-88 221 0
-88 89 0
-89 209 0
-89 90 0
-9 -10 7 0
-9 -7 10 0
-90 197 0
-90 91 0
-91 185 0
-91 92 0
-92 173 0
-92 93 0
-93 161 0
-93 94 0
-94 149 0
-94 95 0
-95 137 0
-95 96 0
-96 125 0
-96 97 0
-97 113 0
-97 98 0
-98 105 0
-98 99 0
-99 -100 7 0
-99 -7 100 0
1 -2 -8 0
1 -8 -803 0
1 0
1 2 -803 0
10 -11 6 0
10 -6 11 0
100 -101 7 0
100 -7 101 0
101 -102 30 0
101 -30 102 0
102 -103 6 0
102 -6 103 0
103 104 0
105 -106 -7 0
105 106 7 0
106 -107 112 0
106 -112 107 0
107 -108 32 0
107 -32 108 0
108 -109 111 0
108 -111 109 0
109 110 0
11 12 0
111 -103 -6 0
112 -30 -102 0
113 -114 -7 0
113 114 7 0
114 -115 120 0
114 -120 115 0
115 -116 34 0
115 -34 116 0
116 -117 119 0
116 -119 117 0
117 118 0
119 -109 -111 0
120 -121 0
120 -124 0
121 -122 0
121 -123 0
122 -32 -108 0
123 -108 -112 0
124 -32 -112 0
125 -126 -7 0
125 126 7 0
126 -127 132 0
126 -132 127 0
127 -128 36 0
127 -36 128 0
128 -129 131 0
128 -131 129 0
129 130 0
13 -14 -61 0
13 -61 -738 0
13 14 -738 0
131 -117 -119 0
132 -133 0
132 -136 0
133 -134 0
133 -135 0
134 -34 -116 0
135 -116 -120 0
136 -34 -120 0
137 -138 -7 0
137 138 7 0
138 -139 144 0
138 -144 139 0
139 -140 38 0
139 -38 140 0
14 -15 -59 0
140 -141 143 0
140 -143 141 0
141 142 0
143 -129 -131 0
144 -145 0
144 -148 0
145 -146 0
145 -147 0
146 -36 -128 0
147 -128 -132 0
148 -36 -132 0
149 -150 -7 0
149 150 7 0
15 -16 -57 0
150 -151 156 0
150 -156 151 0
151 -152 40 0
151 -40 152 0
152 -153 155 0
152 -155 153 0
153 154 0
155 -141 -143 0
156 -157 0
156 -160 0
157 -158 0
157 -159 0
158 -38 -140 0
159 -140 -144 0
16 -17 -55 0
160 -38 -144 0
161 -162 -7 0
161 162 7 0
162 -163 168 0
162 -168 163 0
163 -164 42 0
163 -42 164 0
164 -165 167 0
164 -167 165 0
165 166 0
167 -153 -155 0
168 -169 0
168 -172 0
169 -170 0
169 -171 0
17 -18 -53 0
170 -40 -152 0
171 -152 -156 0
172 -40 -156 0
173 -174 -7 0
173 174 7 0
174 -175 180 0
174 -180 175 0
175 -176 44 0
175 -44 176 0
176 -177 179 0
176 -179 177 0
177 178 0
179 -165 -167 0
18 -19 -51 0
180 -181 0
180 -184 0
181 -182 0
181 -183 0
182 -42 -164 0
183 -164 -168 0
184 -42 -168 0
185 -186 -7 0
185 186 7 0
186 -187 192 0
186 -192 187 0
187 -188 46 0
187 -46 188 0
188 -189 191 0
188 -191 189 0
189 190 0
19 -20 -49 0
191 -177 -179 0
192 -193 0
192 -196 0
193 -194 0
193 -195 0
194 -44 -176 0
195 -176 -180 0
196 -44 -180 0
197 -198 -7 0
197 198 7 0
198 -199 204 0
198 -204 199 0
199 -200 48 0
199 -48 200 0
2 -3 -7 0
2 3 7 0
20 -21 -47 0
200 -201 203 0
200 -203 201 0
201 202 0
203 -189 -191 0
204 -205 0
204 -208 0
205 -206 0
205 -207 0
206 -46 -188 0
207 -188 -192 0
208 -46 -192 0
209 -210 -7 0
209 210 7 0
21 -22 -45 0
210 -211 216 0
210 -216 211 0
211 -212 50 0
211 -50 212 0
212 -213 215 0
212 -215 213 0
213 214 0
215 -201 -203 0
216 -217 0
216 -220 0
217 -218 0
217 -219 0
218 -48 -200 0
219 -200 -204 0
22 -23 -43 0
220 -48 -204 0
221 -222 -7 0
221 222 7 0
222 -223 228 0
222 -228 223 0
223 -224 52 0
223 -52 224 0
224 -225 227 0
224 -227 225 0
225 226 0
227 -213 -215 0
228 -229 0
228 -232 0
229 -230 0
229 -231 0
23 -24 -41 0
230 -50 -212 0
231 -212 -216 0
232 -50 -216 0
233 -234 -7 0
233 234 7 0
234 -235 240 0
234 -240 235 0
235 -236 54 0
235 -54 236 0
236 -237 239 0
236 -239 237 0
237 238 0
239 -225 -227 0
24 -25 -39 0
240 -241 0
240 -244 0
241 -242 0
241 -243 0
242 -52 -224 0
243 -224 -228 0
244 -52 -228 0
245 -246 -7 0
245 246 7 0
246 -247 252 0
246 -252 247 0
247 -248 56 0
247 -56 248 0
248 -249 251 0
248 -251 249 0
249 250 0
25 -26 -37 0
251 -237 -239 0
252 -253 0
252 -256 0
253 -254 0
253 -255 0
254 -54 -236 0
255 -236 -240 0
256 -54 -240 0
257 -258 -7 0
257 258 7 0
258 -259 264 0
258 -264 259 0
259 -260 58 0
259 -58 260 0
26 -27 -35 0
260 -261 263 0
260 -263 261 0
261 262 0
263 -249 -251 0
264 -265 0
264 -268 0
265 -266 0
265 -267 0
266 -56 -248 0
267 -248 -252 0
268 -56 -252 0
269 -270 -7 0
269 270 7 0
27 -28 -33 0
270 -271 276 0
270 -276 271 0
271 -272 60 0
271 -60 272 0
272 -273 275 0
272 -275 273 0
273 274 0
275 -261 -263 0
276 -277 0
276 -280 0
277 -278 0
277 -279 0
278 -58 -260 0
279 -260 -264 0
28 -29 -31 0
280 -58 -264 0
281 -282 -283 0
281 -283 -7 0
281 282 -7 0
282 -73 -6 0
282 73 6 0
283 -284 -285 0
283 -285 -624 0
283 284 -624 0
284 -80 -7 0
284 80 7 0
285 -286 -290 0
285 -290 -609 0
285 286 -609 0
286 -287 -7 0
286 287 7 0
287 -288 6 0
287 -6 288 0
288 289 0
29 -30 -6 0
29 30 6 0
290 -291 -322 0
290 -322 -575 0
290 291 -575 0
291 -292 -321 0
292 -293 -320 0
293 -294 -319 0
294 -295 -318 0
295 -296 -317 0
296 -297 -316 0
297 -298 -315 0
298 -299 -314 0
299 -300 -313 0
3 -4 6 0
3 -6 4 0
300 -301 -312 0
301 -302 -311 0
302 -303 -310 0
303 -304 -309 0
304 -305 -308 0
305 -306 -307 0
306 -104 -6 0
306 104 6 0
307 -110 -6 0
307 110 6 0
308 -118 -6 0
308 118 6 0
309 -130 -6 0
309 130 6 0
31 -32 -6 0
31 32 6 0
310 -142 -6 0
310 142 6 0
311 -154 -6 0
311 154 6 0
312 -166 -6 0
312 166 6 0
313 -178 -6 0
313 178 6 0
314 -190 -6 0
314 190 6 0
315 -202 -6 0
315 202 6 0
316 -214 -6 0
316 214 6 0
317 -226 -6 0
317 226 6 0
318 -238 -6 0
318 238 6 0
319 -250 -6 0
319 250 6 0
320 -262 -6 0
320 262 6 0
321 -274 -6 0
321 274 6 0
322 -323 -332 0
322 -332 -7 0
322 323 -7 0
323 -324 -7 0
323 324 7 0
324 -325 7 0
324 -7 325 0
325 -326 329 0
325 -329 326 0
326 -327 6 0
326 -6 327 0
327 328 0
329 -330 6 0
329 -6 330 0
33 -34 -6 0
33 34 6 0
330 331 0
332 -333 -339 0
332 -339 -573 0
332 333 -573 0
333 -334 -7 0
333 334 7 0
334 -335 7 0
334 -7 335 0
335 -336 80 0
335 -80 336 0
336 -337 6 0
336 -6 337 0
337 338 0
339 -340 -537 0
339 -537 -539 0
339 340 -539 0
340 -341 -525 0
341 -342 -513 0
342 -343 -501 0
343 -344 -489 0
344 -345 -477 0
345 -346 -465 0
346 -347 -453 0
347 -348 -441 0
348 -349 -429 0
349 -350 -417 0
35 -36 -6 0
35 36 6 0
350 -351 -405 0
351 -352 -393 0
352 -353 -381 0
353 -354 -369 0
354 -355 -361 0
355 -356 -7 0
355 356 7 0
356 -357 7 0
356 -7 357 0
357 -104 358 0
357 -358 104 0
358 -359 6 0
358 -6 359 0
359 360 0
361 -362 -7 0
361 362 7 0
362 -363 368 0
362 -368 363 0
363 -110 364 0
363 -364 110 0
364 -365 367 0
364 -367 365 0
365 366 0
367 -359 -6 0
368 -104 -358 0
369 -370 -7 0
369 370 7 0
37 -38 -6 0
37 38 6 0
370 -371 376 0
370 -376 371 0
371 -118 372 0
371 -372 118 0
372 -373 375 0
372 -375 373 0
373 374 0
375 -365 -367 0
376 -377 0
376 -380 0
377 -378 0
377 -379 0
378 -110 -364 0
379 -364 -368 0
380 -110 -368 0
381 -382 -7 0
381 382 7 0
382 -383 388 0
382 -388 383 0
383 -130 384 0
383 -384 130 0
384 -385 387 0
384 -387 385 0
385 386 0
387 -373 -375 0
388 -389 0
388 -392 0
389 -390 0
389 -391 0
39 -40 -6 0
39 40 6 0
390 -118 -372 0
391 -372 -376 0
392 -118 -376 0
393 -394 -7 0
393 394 7 0
394 -395 400 0
394 -400 395 0
395 -142 396 0
395 -396 142 0
396 -397 399 0
396 -399 397 0
397 398 0
399 -385 -387 0
4 5 0
400 -401 0
400 -404 0
401 -402 0
401 -403 0
402 -130 -384 0
403 -384 -388 0
404 -130 -388 0
405 -406 -7 0
405 406 7 0
406 -407 412 0
406 -412 407 0
407 -154 408 0
407 -408 154 0
408 -409 411 0
408 -411 409 0
409 410 0
41 -42 -6 0
41 42 6 0
411 -397 -399 0
412 -413 0
412 -416 0
413 -414 0
413 -415 0
414 -142 -396 0
415 -396 -400 0
416 -142 -400 0
417 -418 -7 0
417 418 7 0
418 -419 424 0
418 -424 419 0
419 -166 420 0
419 -420 166 0
420 -421 423 0
420 -423 421 0
421 422 0
423 -409 -411 0
424 -425 0
424 -428 0
425 -426 0
425 -427 0
426 -154 -408 0
427 -408 -412 0
428 -154 -412 0
429 -430 -7 0
429 430 7 0
43 -44 -6 0
43 44 6 0
430 -431 436 0
430 -436 431 0
431 -178 432 0
431 -432 178 0
432 -433 435 0
432 -435 433 0
433 434 0
435 -421 -423 0
436 -437 0
436 -440 0
437 -438 0
437 -439 0
438 -166 -420 0
439 -420 -424 0
440 -166 -424 0
441 -442 -7 0
441 442 7 0
442 -443 448 0
442 -448 443 0
443 -190 444 0
443 -444 190 0
444 -445 447 0
444 -447 445 0
445 446 0
447 -433 -435 0
448 -449 0
448 -452 0
449 -450 0
449 -451 0
45 -46 -6 0
45 46 6 0
450 -178 -432 0
451 -432 -436 0
452 -178 -436 0
453 -454 -7 0
453 454 7 0
454 -455 460 0
454 -460 455 0
455 -202 456 0
455 -456 202 0
456 -457 459 0
456 -459 457 0
457 458 0
459 -445 -447 0
460 -461 0
460 -464 0
461 -462 0
461 -463 0
462 -190 -444 0
463 -444 -448 0
464 -190 -448 0
465 -466 -7 0
465 466 7 0
466 -467 472 0
466 -472 467 0
467 -214 468 0
467 -468 214 0
468 -469 471 0
468 -471 469 0
469 470 0
47 -48 -6 0
47 48 6 0
471 -457 -459 0
472 -473 0
472 -476 0
473 -474 0
473 -475 0
474 -202 -456 0
475 -456 -460 0
476 -202 -460 0
477 -478 -7 0
477 478 7 0
478 -479 484 0
478 -484 479 0
479 -226 480 0
479 -480 226 0
480 -481 483 0
480 -483 481 0
481 482 0
483 -469 -471 0
484 -485 0
484 -488 0
485 -486 0
485 -487 0
486 -214 -468 0
487 -468 -472 0
488 -214 -472 0
489 -490 -7 0
489 490 7 0
49 -50 -6 0
49 50 6 0
490 -491 496 0
490 -496 491 0
491 -238 492 0
491 -492 238 0
492 -493 495 0
492 -495 493 0
493 494 0
495 -481 -483 0
496 -497 0
496 -500 0
497 -498 0
497 -499 0
498 -226 -480 0
499 -480 -484 0
500 -226 -484 0
501 -502 -7 0
501 502 7 0
502 -503 508 0
502 -508 503 0
503 -250 504 0
503 -504 250 0
504 -505 507 0
504 -507 505 0
505 506 0
507 -493 -495 0
508 -509 0
508 -512 0
509 -510 0
509 -511 0
51 -52 -6 0
51 52 6 0
510 -238 -492 0
511 -492 -496 0
512 -238 -496 0
513 -514 -7 0
513 514 7 0
514 -515 520 0
514 -520 515 0
515 -262 516 0
515 -516 262 0
516 -517 519 0
516 -519 517 0
517 518 0
519 -505 -507 0
520 -521 0
520 -524 0
521 -522 0
521 -523 0
522 -250 -504 0
523 -504 -508 0
524 -250 -508 0
525 -526 -7 0
525 526 7 0
526 -527 532 0
526 -532 527 0
527 -274 528 0
527 -528 274 0
528 -529 531 0
528 -531 529 0
529 530 0
53 -54 -6 0
53 54 6 0
531 -517 -519 0
532 -533 0
532 -536 0
533 -534 0
533 -535 0
534 -262 -516 0
535 -516 -520 0
536 -262 -520 0
537 -538 -6 0
537 -6 -7 0
537 538 -7 0
538 -329 -6 0
538 329 6 0
539 -540 -571 0
539 -571 -7 0
539 540 -7 0
540 -541 -570 0
541 -542 -569 0
542 -543 -568 0
543 -544 -567 0
544 -545 -566 0
545 -546 -565 0
546 -547 -564 0
547 -548 -563 0
548 -549 -562 0
549 -550 -561 0
55 -56 -6 0
55 56 6 0
550 -551 -560 0
551 -552 -559 0
552 -553 -558 0
553 -554 -557 0
554 -555 -556 0
555 -360 -7 0
555 360 7 0
556 -366 -7 0
556 366 7 0
557 -374 -7 0
557 374 7 0
558 -386 -7 0
558 386 7 0
559 -398 -7 0
559 398 7 0
560 -410 -7 0
560 410 7 0
561 -422 -7 0
561 422 7 0
562 -434 -7 0
562 434 7 0
563 -446 -7 0
563 446 7 0
564 -458 -7 0
564 458 7 0
565 -470 -7 0
565 470 7 0
566 -482 -7 0
566 482 7 0
567 -494 -7 0
567 494 7 0
568 -506 -7 0
568 506 7 0
569 -518 -7 0
569 518 7 0
57 -58 -6 0
57 58 6 0
570 -530 -7 0
570 530 7 0
571 -572 -6 0
571 -6 -7 0
571 572 -7 0
572 -329 -7 0
572 329 7 0
573 -340 -537 0
573 -537 -574 0
573 340 -574 0
574 -537 -7 0
574 -540 -537 0
574 540 -7 0
575 -323 -576 0
575 -576 -7 0
575 323 -7 0
576 -340 -537 0
576 -537 -577 0
576 340 -577 0
577 -537 -7 0
577 -578 -537 0
577 578 -7 0
578 -579 -608 0
579 -580 -607 0
580 -581 -606 0
581 -582 -605 0
582 -583 -604 0
583 -584 -603 0
584 -585 -602 0
585 -586 -601 0
586 -587 -600 0
587 -588 -599 0
588 -589 -598 0
589 -590 -597 0
59 -60 -6 0
59 60 6 0
590 -591 -596 0
591 -592 -595 0
592 -593 -594 0
593 -356 -6 0
593 356 6 0
594 -362 -6 0
594 362 6 0
595 -370 -6 0
595 370 6 0
596 -382 -6 0
596 382 6 0
597 -394 -6 0
597 394 6 0
598 -406 -6 0
598 406 6 0
599 -418 -6 0
599 418 6 0
6 0
600 -430 -6 0
600 430 6 0
601 -442 -6 0
601 442 6 0
602 -454 -6 0
602 454 6 0
603 -466 -6 0
603 466 6 0
604 -478 -6 0
604 478 6 0
605 -490 -6 0
605 490 6 0
606 -502 -6 0
606 502 6 0
607 -514 -6 0
607 514 6 0
608 -526 -6 0
608 526 6 0
609 -291 -610 0
609 -610 -621 0
609 291 -621 0
61 -62 -66 0
61 -66 -726 0
61 62 -726 0
610 -323 -611 0
610 -611 -7 0
610 323 -7 0
611 -612 -618 0
611 -618 -619 0
611 612 -619 0
612 -613 -6 0
612 613 6 0
613 -614 7 0
613 -7 614 0
614 -287 615 0
614 -615 287 0
615 -6 616 0
615 -616 6 0
616 617 0
618 -340 -537 0
618 -537 -7 0
618 340 -7 0
619 -618 -339 0
619 -620 -618 0
619 620 -339 0
62 -63 -6 0
62 63 6 0
620 -334 -6 0
620 334 6 0
621 -323 -622 0
621 -622 -7 0
621 323 -7 0
622 -612 -618 0
622 -618 -623 0
622 612 -623 0
623 -618 -576 0
623 -620 -618 0
623 620 -576 0
624 -286 -625 0
624 -625 -634 0
624 286 -634 0
625 -291 -626 0
625 -626 -575 0
625 291 -575 0
626 -323 -627 0
626 -627 -7 0
626 323 -7 0
627 -612 -628 0
627 -628 -633 0
627 612 -633 0
628 -339 -629 0
628 -620 -339 0
628 620 -629 0
629 -573 -631 0
629 -630 -573 0
629 630 -631 0
63 -6 64 0
63 -64 6 0
630 -336 -6 0
630 336 6 0
631 -340 -537 0
631 -537 -632 0
631 340 -632 0
632 -540 -6 0
632 -6 -7 0
632 540 -7 0
633 -333 -573 0
633 -573 -339 0
633 333 -339 0
634 -291 -635 0
634 -635 -638 0
634 291 -638 0
635 -323 -636 0
635 -636 -7 0
635 323 -7 0
636 -612 -618 0
636 -618 -637 0
636 612 -637 0
637 -339 -618 0
637 -620 -339 0
637 620 -618 0
638 -323 -639 0
638 -639 -7 0
638 323 -7 0
639 -612 -618 0
639 -618 -640 0
639 612 -640 0
64 65 0
640 -576 -618 0
640 -620 -576 0
640 620 -618 0
641 -642 -673 0
641 -673 -7 0
641 642 -7 0
642 -643 -672 0
643 -644 -671 0
644 -645 -670 0
645 -646 -669 0
646 -647 -668 0
647 -648 -667 0
648 -649 -666 0
649 -650 -665 0
650 -651 -664 0
651 -652 -663 0
652 -653 -662 0
653 -654 -661 0
654 -655 -660 0
655 -656 -659 0
656 -657 -658 0
657 -104 -7 0
657 104 7 0
658 -110 -7 0
658 110 7 0
659 -118 -7 0
659 118 7 0
66 -67 -76 0
66 -76 -7 0
66 67 -7 0
660 -130 -7 0
660 130 7 0
661 -142 -7 0
661 142 7 0
662 -154 -7 0
662 154 7 0
663 -166 -7 0
663 166 7 0
664 -178 -7 0
664 178 7 0
665 -190 -7 0
665 190 7 0
666 -202 -7 0
666 202 7 0
667 -214 -7 0
667 214 7 0
668 -226 -7 0
668 226 7 0
669 -238 -7 0
669 238 7 0
67 -68 -7 0
67 68 7 0
670 -250 -7 0
670 250 7 0
671 -262 -7 0
671 262 7 0
672 -274 -7 0
672 274 7 0
673 -282 -674 0
673 -674 -676 0
673 282 -676 0
674 -283 -7 0
674 -675 -283 0
674 675 -7 0
675 -73 -7 0
675 73 7 0
676 -675 -677 0
676 -677 -7 0
676 675 -7 0
677 -284 -678 0
677 -678 -703 0
677 284 -703 0
678 -286 -679 0
678 -679 -692 0
678 286 -692 0
679 -291 -680 0
679 -680 -684 0
679 291 -684 0
68 -69 7 0
68 -7 69 0
680 -323 -681 0
680 -681 -7 0
680 323 -7 0
681 -612 -629 0
681 -629 -682 0
681 612 -682 0
682 -333 -683 0
682 -683 -573 0
682 333 -573 0
683 -340 -6 0
683 -6 -574 0
683 340 -574 0
684 -323 -685 0
684 -685 -7 0
684 323 -7 0
685 -612 -686 0
685 -686 -689 0
685 612 -689 0
686 -333 -687 0
686 -687 -576 0
686 333 -576 0
687 -340 -537 0
687 -537 -688 0
687 340 -688 0
688 -578 -6 0
688 -6 -7 0
688 578 -7 0
689 -333 -690 0
689 -690 -576 0
689 333 -576 0
69 -70 73 0
69 -73 70 0
690 -340 -6 0
690 -6 -691 0
690 340 -691 0
691 -571 -7 0
691 -578 -571 0
691 578 -7 0
692 -291 -693 0
692 -693 -699 0
692 291 -699 0
693 -323 -694 0
693 -694 -7 0
693 323 -7 0
694 -612 -695 0
694 -695 -697 0
694 612 -697 0
695 -333 -696 0
695 -696 -618 0
695 333 -618 0
696 -340 -6 0
696 -6 -7 0
696 340 -7 0
697 -618 -698 0
697 -620 -618 0
697 620 -698 0
698 -340 -6 0
698 -6 -632 0
698 340 -632 0
699 -323 -700 0
699 -700 -7 0
699 323 -7 0
70 -6 71 0
70 -71 6 0
700 -612 -695 0
700 -695 -701 0
700 612 -701 0
701 -618 -702 0
701 -620 -618 0
701 620 -702 0
702 -340 -6 0
702 -6 -688 0
702 340 -688 0
703 -286 -704 0
703 -704 -714 0
703 286 -714 0
704 -291 -705 0
704 -705 -708 0
704 291 -708 0
705 -323 -706 0
705 -706 -7 0
705 323 -7 0
706 -683 -573 0
706 -707 -683 0
706 707 -573 0
707 -613 -7 0
707 613 7 0
708 -323 -709 0
708 -709 -7 0
708 323 -7 0
709 -612 -710 0
709 -710 -712 0
709 612 -712 0
71 72 0
710 -620 -711 0
710 -711 -576 0
710 620 -576 0
711 -340 -537 0
711 -537 -691 0
711 340 -691 0
712 -333 -713 0
712 -713 -690 0
712 333 -690 0
713 -340 -6 0
713 -6 -577 0
713 340 -577 0
714 -291 -715 0
714 -715 -720 0
714 291 -720 0
715 -323 -716 0
715 -716 -7 0
715 323 -7 0
716 -612 -717 0
716 -717 -718 0
716 612 -718 0
717 -620 -696 0
717 -696 -618 0
717 620 -618 0
718 -620 -719 0
718 -719 -696 0
718 620 -696 0
719 -340 -571 0
719 -571 -632 0
719 340 -632 0
720 -323 -721 0
720 -721 -7 0
720 323 -7 0
721 -612 -717 0
721 -717 -722 0
721 612 -722 0
722 -620 -723 0
722 -723 -696 0
722 620 -696 0
723 -340 -571 0
723 -571 -688 0
723 340 -688 0
724 -281 -725 0
724 -84 -281 0
724 84 -725 0
725 -281 -7 0
725 -642 -281 0
725 642 -7 0
726 -67 -727 0
726 -727 -7 0
726 67 -7 0
727 -728 -731 0
727 -731 -736 0
727 728 -736 0
728 -729 -6 0
728 729 6 0
729 -7 730 0
729 -730 7 0
73 -6 74 0
73 -74 6 0
730 -10 287 0
730 -287 10 0
731 -724 -733 0
731 -732 -724 0
731 732 -733 0
732 -80 -6 0
732 80 6 0
733 -281 -734 0
733 -84 -281 0
733 84 -734 0
734 -642 -735 0
734 -735 -7 0
734 642 -7 0
735 -282 -283 0
735 -283 -677 0
735 282 -677 0
736 -737 -724 0
736 -77 -737 0
736 77 -724 0
737 -735 -725 0
737 -84 -735 0
737 84 -725 0
738 -62 -739 0
738 -739 -773 0
738 62 -773 0
739 -67 -740 0
739 -740 -7 0
739 67 -7 0
74 75 0
740 -281 -741 0
740 -84 -281 0
740 84 -741 0
741 -281 -7 0
741 -742 -281 0
741 742 -7 0
742 -743 -772 0
743 -744 -771 0
744 -745 -770 0
745 -746 -769 0
746 -747 -768 0
747 -748 -767 0
748 -749 -766 0
749 -750 -765 0
750 -751 -764 0
751 -752 -763 0
752 -753 -762 0
753 -754 -761 0
754 -755 -760 0
755 -756 -759 0
756 -757 -758 0
757 -100 -6 0
757 100 6 0
758 -106 -6 0
758 106 6 0
759 -114 -6 0
759 114 6 0
76 -77 -83 0
76 -83 -724 0
76 77 -724 0
760 -126 -6 0
760 126 6 0
761 -138 -6 0
761 138 6 0
762 -150 -6 0
762 150 6 0
763 -162 -6 0
763 162 6 0
764 -174 -6 0
764 174 6 0
765 -186 -6 0
765 186 6 0
766 -198 -6 0
766 198 6 0
767 -210 -6 0
767 210 6 0
768 -222 -6 0
768 222 6 0
769 -234 -6 0
769 234 6 0
77 -78 -7 0
77 78 7 0
770 -246 -6 0
770 246 6 0
771 -258 -6 0
771 258 6 0
772 -270 -6 0
772 270 6 0
773 -67 -774 0
773 -774 -7 0
773 67 -7 0
774 -728 -775 0
774 -775 -778 0
774 728 -778 0
775 -77 -776 0
775 -776 -740 0
775 77 -740 0
776 -281 -777 0
776 -84 -281 0
776 84 -777 0
777 -735 -7 0
777 -742 -735 0
777 742 -7 0
778 -77 -779 0
778 -779 -740 0
778 77 -740 0
779 -735 -780 0
779 -84 -735 0
779 84 -780 0
78 -7 79 0
78 -79 7 0
780 -673 -7 0
780 -742 -673 0
780 742 -7 0
781 -14 -782 0
781 -782 -795 0
781 14 -795 0
782 -783 -784 0
782 -784 -792 0
782 783 -792 0
783 -63 -7 0
783 63 7 0
784 -67 -785 0
784 -785 -7 0
784 67 -7 0
785 -728 -786 0
785 -786 -789 0
785 728 -789 0
786 -77 -787 0
786 -787 -788 0
786 77 -788 0
787 -735 -7 0
787 -84 -735 0
787 84 -7 0
788 -281 -7 0
788 -84 -281 0
788 84 -7 0
789 -788 -791 0
789 -790 -788 0
789 790 -791 0
79 -3 80 0
79 -80 3 0
790 -78 -6 0
790 78 6 0
791 -735 -734 0
791 -84 -735 0
791 84 -734 0
792 -67 -793 0
792 -793 -7 0
792 67 -7 0
793 -728 -788 0
793 -788 -794 0
793 728 -794 0
794 -788 -83 0
794 -790 -788 0
794 790 -83 0
795 -783 -796 0
795 -796 -800 0
795 783 -800 0
796 -67 -797 0
796 -797 -7 0
796 67 -7 0
797 -728 -786 0
797 -786 -798 0
797 728 -798 0
798 -788 -799 0
798 -790 -788 0
798 790 -799 0
799 -735 -777 0
799 -84 -735 0
799 84 -777 0
8 -13 -781 0
8 -9 -13 0
8 9 -781 0
80 -6 81 0
80 -81 6 0
800 -67 -801 0
800 -801 -7 0
800 67 -7 0
801 -728 -788 0
801 -788 -802 0
801 728 -802 0
802 -788 -740 0
802 -790 -788 0
802 790 -740 0
803 -804 -820 0
803 -9 -804 0
803 9 -820 0
804 -14 -805 0
804 -805 -813 0
804 14 -813 0
805 -62 -806 0
805 -806 -810 0
805 62 -810 0
806 -67 -807 0
806 -807 -7 0
806 67 -7 0
807 -728 -808 0
807 -808 -809 0
807 728 -809 0
808 -790 -83 0
808 -83 -731 0
808 790 -731 0
809 -724 -83 0
809 -77 -724 0
809 77 -83 0
81 82 0
810 -67 -811 0
810 -811 -7 0
810 67 -7 0
811 -737 -724 0
811 -812 -737 0
811 812 -724 0
812 -729 -7 0
812 729 7 0
813 -62 -739 0
813 -739 -814 0
813 62 -814 0
814 -67 -815 0
814 -815 -7 0
814 67 -7 0
815 -728 -816 0
815 -816 -818 0
815 728 -818 0
816 -790 -817 0
816 -817 -740 0
816 790 -740 0
817 -281 -780 0
817 -84 -281 0
817 84 -780 0
818 -77 -819 0
818 -819 -779 0
818 77 -779 0
819 -735 -741 0
819 -84 -735 0
819 84 -741 0
820 -14 -821 0
820 -821 -830 0
820 14 -830 0
821 -62 -822 0
821 -822 -825 0
821 62 -825 0
822 -67 -823 0
822 -823 -7 0
822 67 -7 0
823 -728 -788 0
823 -788 -824 0
823 728 -824 0
824 -790 -83 0
824 -83 -788 0
824 790 -788 0
825 -67 -826 0
825 -826 -7 0
825 67 -7 0
826 -728 -827 0
826 -827 -828 0
826 728 -828 0
827 -787 -788 0
827 -790 -787 0
827 790 -788 0
828 -790 -829 0
828 -829 -787 0
828 790 -787 0
829 -673 -734 0
829 -84 -673 0
829 84 -734 0
83 -281 -641 0
83 -84 -281 0
83 84 -641 0
830 -62 -831 0
830 -831 -834 0
830 62 -834 0
831 -67 -832 0
831 -832 -7 0
831 67 -7 0
832 -728 -788 0
832 -788 -833 0
832 728 -833 0
833 -740 -788 0
833 -790 -740 0
833 790 -788 0
834 -67 -835 0
834 -835 -7 0
834 67 -7 0
835 -728 -827 0
835 -827 -836 0
835 728 -836 0
836 -790 -837 0
836 -837 -787 0
836 790 -787 0
837 -673 -777 0
837 -84 -673 0
837 84 -777 0
84 -85 -269 0
85 -86 -257 0
86 -87 -245 0
87 -88 -233 0
88 -89 -221 0
89 -90 -209 0
9 -10 -7 0
9 10 7 0
90 -91 -197 0
91 -92 -185 0
92 -93 -173 0
93 -94 -161 0
94 -95 -149 0
95 -96 -137 0
96 -97 -125 0
97 -98 -113 0
98 -99 -105 0
99 -100 -7 0
99 100 7 0
